
Gurobi 9.5.0 (linux64) logging started Fri Dec  8 09:24:23 2023

Set parameter LogFile to value "/lustre1/scratch/348/vsc34888/JointResearch/05.Models/06.Benchmarking/F.Representative_days_based_on_Line_Benefit_NN_OC_fy_1/RTS24_mod1_ByStages_nc300/openStarNet_RTS24_mod1_ByStages_nc300.log"
Set parameter Method to value 2
Set parameter MIPFocus to value 1
Set parameter Presolve to value 2
Set parameter RINS to value 100
Set parameter MIPGap to value 0.01
Set parameter Threads to value 36
Set parameter TimeLimit to value 259200
Set parameter IterationLimit to value 760000000
Gurobi Optimizer version 9.5.0 build v9.5.0rc5 (linux64)
Thread count: 36 physical cores, 36 logical processors, using up to 36 threads
Optimize a model with 106858 rows, 72123 columns and 291304 nonzeros
Model fingerprint: 0x918a338a
Variable types: 72102 continuous, 21 integer (21 binary)
Coefficient statistics:
  Matrix range     [1e-03, 8e+02]
  Objective range  [1e+00, 1e+00]
  Bounds range     [3e-05, 3e+00]
  RHS range        [3e-05, 3e+00]
Presolve removed 63639 rows and 36574 columns
Presolve time: 0.41s
Presolved: 43219 rows, 35549 columns, 156090 nonzeros
Variable types: 35528 continuous, 21 integer (21 binary)
Root relaxation presolved: 43219 rows, 35549 columns, 156090 nonzeros

Root barrier log...

Ordering time: 0.01s

Barrier statistics:
 Dense cols : 21
 AA' NZ     : 2.899e+05
 Factor NZ  : 8.446e+05 (roughly 40 MB of memory)
 Factor Ops : 1.935e+07 (less than 1 second per iteration)
 Threads    : 35

                  Objective                Residual
Iter       Primal          Dual         Primal    Dual     Compl     Time
   0   6.68063602e+05 -2.72304474e+08  5.33e+00 1.74e+02  7.63e+03     1s
   1   1.06889118e+05 -7.06874781e+07  7.08e-01 1.33e-08  1.07e+03     1s
   2   4.37839871e+04 -3.22647497e+07  1.89e-01 7.58e-09  3.80e+02     1s
   3   2.24400486e+04 -3.76151984e+06  9.19e-03 7.61e-09  3.83e+01     1s
   4   1.67390160e+04 -3.87241230e+05  6.38e-04 5.56e-10  4.02e+00     1s
   5   7.30150008e+03 -9.00228388e+04  5.38e-05 1.22e-10  9.67e-01     1s
   6   2.43056063e+03 -2.17198898e+04  1.00e-05 2.70e-11  2.40e-01     1s
   7   8.89112258e+02 -5.96019627e+03  2.32e-06 7.50e-12  6.80e-02     1s
   8   2.89373479e+02 -1.34527317e+03  1.02e-07 1.52e-12  1.62e-02     1s
   9   2.05976011e+02 -5.89200221e+02  5.68e-08 7.23e-13  7.90e-03     1s
  10   1.12233397e+02 -2.19448124e+02  1.76e-08 1.82e-12  3.29e-03     1s
  11   7.98410055e+01 -2.97900015e+01  8.28e-09 9.09e-13  1.09e-03     1s
  12   6.48639397e+01  1.10815958e+01  4.79e-09 4.55e-13  5.34e-04     1s
  13   5.90459029e+01  1.85172311e+01  3.50e-09 4.55e-13  4.02e-04     1s
  14   5.47596134e+01  2.16677015e+01  2.52e-09 9.09e-13  3.29e-04     1s
  15   5.25960531e+01  2.59044991e+01  2.01e-09 9.09e-13  2.65e-04     1s
  16   4.99313609e+01  3.00649100e+01  1.40e-09 9.09e-13  1.97e-04     1s
  17   4.78442485e+01  3.18193967e+01  9.19e-10 4.55e-13  1.59e-04     1s
  18   4.62056305e+01  3.77088741e+01  5.48e-10 9.09e-13  8.44e-05     1s
  19   4.59250517e+01  3.99285032e+01  4.74e-10 9.09e-13  5.95e-05     1s
  20   4.54672699e+01  4.05756673e+01  3.78e-10 2.27e-13  4.86e-05     1s
  21   4.50900097e+01  4.10862326e+01  2.94e-10 4.55e-13  3.98e-05     1s
  22   4.49253148e+01  4.16870664e+01  2.56e-10 4.55e-13  3.22e-05     1s
  23   4.46099322e+01  4.20886221e+01  1.84e-10 4.55e-13  2.50e-05     1s
  24   4.44884329e+01  4.23388144e+01  1.57e-10 9.09e-13  2.13e-05     1s
  25   4.42611614e+01  4.29694302e+01  1.08e-10 9.09e-13  1.28e-05     1s
  26   4.42075306e+01  4.30048927e+01  9.73e-11 9.09e-13  1.19e-05     1s
  27   4.41125645e+01  4.31908725e+01  7.67e-11 9.09e-13  9.15e-06     1s
  28   4.39697437e+01  4.33422378e+01  4.61e-11 9.09e-13  6.23e-06     1s
  29   4.38795500e+01  4.34755598e+01  6.78e-11 9.09e-13  4.01e-06     1s
  30   4.38337753e+01  4.35787541e+01  4.54e-11 2.27e-13  2.53e-06     1s
  31   4.38267884e+01  4.36347903e+01  4.22e-11 4.55e-13  1.91e-06     1s
  32   4.38151428e+01  4.36799630e+01  3.78e-11 9.09e-13  1.34e-06     1s
  33   4.37871759e+01  4.37025397e+01  6.35e-11 4.55e-13  8.40e-07     1s
  34   4.37715866e+01  4.37110508e+01  1.30e-10 2.27e-13  6.01e-07     1s
  35   4.37639721e+01  4.37236776e+01  4.90e-11 4.55e-13  4.00e-07     1s
  36   4.37634448e+01  4.37252209e+01  4.99e-11 4.55e-13  3.80e-07     1s
  37   4.37625893e+01  4.37392716e+01  4.50e-11 9.09e-13  2.32e-07     1s
  38   4.37612777e+01  4.37476693e+01  9.63e-11 4.55e-13  1.35e-07     1s
  39   4.37606708e+01  4.37550367e+01  5.09e-11 4.55e-13  5.59e-08     1s
  40   4.37602366e+01  4.37588128e+01  5.60e-09 5.97e-13  1.41e-08     1s
  41   4.37601432e+01  4.37594597e+01  4.36e-09 1.57e-11  6.79e-09     1s
  42   4.37600551e+01  4.37597406e+01  2.38e-09 4.08e-11  3.12e-09     2s
  43   4.37600311e+01  4.37598964e+01  1.61e-09 3.85e-10  1.34e-09     2s
  44   4.37600035e+01  4.37599272e+01  5.13e-10 2.47e-10  7.59e-10     2s
  45   4.37600001e+01  4.37599605e+01  2.78e-10 1.98e-09  3.93e-10     2s
  46   4.37599998e+01  4.37599691e+01  2.40e-10 1.54e-09  3.05e-10     2s
  47   4.37599988e+01  4.37599933e+01  1.01e-10 2.25e-10  5.46e-11     2s
  48   4.37599985e+01  4.37599963e+01  2.02e-10 8.99e-11  2.14e-11     2s
  49   4.37599985e+01  4.37599971e+01  9.51e-11 5.72e-11  1.37e-11     2s
  50   4.37599984e+01  4.37599984e+01  4.06e-11 1.05e-12  2.43e-13     2s

Barrier solved model in 50 iterations and 1.66 seconds (1.48 work units)
Optimal objective 4.37599984e+01


Root relaxation: objective 4.376000e+01, 5970 iterations, 1.48 seconds (1.23 work units)

    Nodes    |    Current Node    |     Objective Bounds      |     Work
 Expl Unexpl |  Obj  Depth IntInf | Incumbent    BestBd   Gap | It/Node Time

     0     0   43.76000    0   17          -   43.76000      -     -    2s
H    0     0                      83.6084809   43.76000  47.7%     -    3s
     0     0   44.20909    0    9   83.60848   44.20909  47.1%     -    5s
H    0     0                      80.7732067   44.20909  45.3%     -    5s
H    0     0                      74.3904819   44.20932  40.6%     -    6s
     0     0   44.20932    0    9   74.39048   44.20932  40.6%     -    6s
H    0     0                      68.1358135   44.35464  34.9%     -    7s
     0     0   44.35464    0   10   68.13581   44.35464  34.9%     -    8s
     0     0   44.45166    0   11   68.13581   44.45166  34.8%     -    9s
     0     0   44.61211    0   10   68.13581   44.61211  34.5%     -   11s
H    0     0                      65.6969156   44.61211  32.1%     -   12s
     0     0   44.62626    0   11   65.69692   44.62626  32.1%     -   12s
     0     0   44.63971    0   12   65.69692   44.63971  32.1%     -   13s
H    0     0                      62.7351526   44.63971  28.8%     -   14s
     0     0   45.06237    0   11   62.73515   45.06237  28.2%     -   14s
     0     0   45.11366    0   10   62.73515   45.11366  28.1%     -   17s
H    0     0                      59.4798700   45.11366  24.2%     -   44s
     0     2   45.11366    0   10   59.47987   45.11366  24.2%     -   45s
    15    32   45.23773    4   11   59.47987   45.20625  24.0%  1798   50s
    63    88   46.79713    6   12   59.47987   45.59968  23.3%  1640   57s
    99   118   47.94991    7   13   59.47987   46.82924  21.3%  1550   94s
   135   146   48.83861    8   13   59.47987   46.82924  21.3%  1530  143s
   171   178   51.39389    9   12   59.47987   46.82924  21.3%  1528  145s
   259   208   54.73934   10   11   59.47987   46.82924  21.3%  1600  164s
   303   206     cutoff   10        59.47987   46.82924  21.3%  1610  169s
   355   210   58.25605   11   10   59.47987   46.82924  21.3%  1581  172s
   419   210     cutoff   11        59.47987   46.82924  21.3%  1537  175s
   558   219   57.16163   10    8   59.47987   46.82924  21.3%  1507  180s
   711   207     cutoff   12        59.47987   46.82924  21.3%  1485  186s
   785   197     cutoff   13        59.47987   48.02608  19.3%  1484  190s
   968   203     cutoff    9        59.47987   48.11985  19.1%  1448  195s
  1184   184   56.81693    8    7   59.47987   50.78264  14.6%  1360  215s
  1253   178   59.06474    9    7   59.47987   50.78264  14.6%  1344  220s
  1540   124     cutoff   11        59.47987   51.09863  14.1%  1240  225s
  1799    71     cutoff   13        59.47987   54.49726  8.38%  1186  362s
  1885    42   54.82075   11   10   59.47987   54.51352  8.35%  1174  365s
  2064     0     cutoff   14        59.47987   57.50523  3.32%  1129  371s

Cutting planes:
  Implied bound: 3
  MIR: 1251
  Relax-and-lift: 162

Explored 2076 nodes (2358213 simplex iterations) in 371.20 seconds (667.76 work units)
Thread count was 36 (of 36 available processors)

Solution count 7: 59.4799 62.7352 65.6969 ... 83.6085

Optimal solution found (tolerance 1.00e-02)
Best objective 5.947987001819e+01, best bound 5.947987001819e+01, gap 0.0000%

Gurobi 9.5.0 (linux64) logging started Fri Dec  8 09:31:12 2023

Set parameter LogFile to value "/lustre1/scratch/348/vsc34888/JointResearch/05.Models/06.Benchmarking/F.Representative_days_based_on_Line_Benefit_NN_OC_fy_1/RTS24_mod1_ByStages_nc300/openStarNet_RTS24_mod1_ByStages_nc300.log"
Set parameter Method to value 2
Set parameter MIPFocus to value 1
Set parameter Presolve to value 2
Set parameter RINS to value 100
Set parameter MIPGap to value 0.01
Set parameter Threads to value 36
Set parameter TimeLimit to value 259200
Set parameter IterationLimit to value 760000000
No parameters matching 'relax_integrality' found
Gurobi Optimizer version 9.5.0 build v9.5.0rc5 (linux64)
Thread count: 36 physical cores, 36 logical processors, using up to 36 threads
Optimize a model with 106858 rows, 72102 columns and 265999 nonzeros
Model fingerprint: 0x33e80515
Coefficient statistics:
  Matrix range     [1e-03, 8e+02]
  Objective range  [1e+00, 1e+00]
  Bounds range     [3e-05, 3e+00]
  RHS range        [3e-05, 2e+01]
Presolve removed 89414 rows and 40573 columns
Presolve time: 0.13s
Presolved: 17444 rows, 31830 columns, 75132 nonzeros

Ordering time: 0.00s

Barrier statistics:
 AA' NZ     : 3.965e+04
 Factor NZ  : 1.499e+05 (roughly 17 MB of memory)
 Factor Ops : 1.931e+06 (less than 1 second per iteration)
 Threads    : 36

                  Objective                Residual
Iter       Primal          Dual         Primal    Dual     Compl     Time
   0   4.03982203e+06 -7.70013630e+07  5.51e+01 4.16e+01  2.60e+04     0s
   1   2.65434976e+05 -5.96604194e+07  3.08e+00 1.93e-12  2.35e+03     0s
   2   5.70200584e+04 -1.39702596e+07  4.87e-01 3.87e-12  3.78e+02     0s
   3   2.73763786e+04 -2.54092893e+06  4.87e-02 1.90e-12  5.28e+01     0s
   4   1.94420265e+04 -5.23217511e+05  4.43e-03 1.14e-12  1.02e+01     0s
   5   1.19490857e+04 -1.31231464e+05  3.47e-05 9.65e-13  2.66e+00     0s
   6   4.46575427e+03 -4.19966102e+04  2.41e-06 6.04e-13  8.62e-01     0s
   7   1.68517979e+03 -1.43502647e+04  4.30e-07 2.80e-13  2.97e-01     0s
   8   7.27705529e+02 -3.70492794e+03  9.60e-08 2.27e-13  8.22e-02     0s
   9   3.02146832e+02 -1.26845174e+03  5.63e-09 2.27e-13  2.91e-02     0s
  10   2.00897728e+02 -4.95698724e+02  2.13e-09 4.55e-13  1.29e-02     0s
  11   1.18033671e+02 -1.54628259e+02  5.50e-10 4.55e-13  5.06e-03     0s
  12   7.71174607e+01  2.40253519e+01  1.11e-10 4.55e-13  9.85e-04     0s
  13   6.48720248e+01  4.62390190e+01  2.79e-11 4.55e-13  3.46e-04     0s
  14   6.14105874e+01  5.43691321e+01  9.35e-12 2.27e-13  1.31e-04     0s
  15   6.02463056e+01  5.79220830e+01  6.31e-12 4.55e-13  4.31e-05     0s
  16   5.97896576e+01  5.89326501e+01  2.58e-11 4.55e-13  1.59e-05     0s
  17   5.95824130e+01  5.92712753e+01  1.96e-11 1.14e-13  5.77e-06     0s
  18   5.94998359e+01  5.94482171e+01  3.14e-11 2.27e-13  9.57e-07     0s
  19   5.94867467e+01  5.94737167e+01  2.99e-11 2.27e-13  2.42e-07     0s
  20   5.94802070e+01  5.94796791e+01  1.46e-10 4.55e-13  9.79e-09     0s
  21   5.94798712e+01  5.94798525e+01  2.84e-10 1.71e-13  3.47e-10     0s
  22   5.94798700e+01  5.94798700e+01  7.69e-11 2.27e-13  3.49e-13     0s
  23   5.94798700e+01  5.94798700e+01  8.63e-12 4.55e-13  9.20e-18     0s

Barrier solved model in 23 iterations and 0.38 seconds (0.34 work units)
Optimal objective 5.94798700e+01

Crossover log...

    3839 DPushes remaining with DInf 0.0000000e+00                 0s
       0 DPushes remaining with DInf 0.0000000e+00                 0s

     921 PPushes remaining with PInf 0.0000000e+00                 0s
       0 PPushes remaining with PInf 0.0000000e+00                 0s

  Push phase complete: Pinf 0.0000000e+00, Dinf 1.0444669e-13      0s

Iteration    Objective       Primal Inf.    Dual Inf.      Time
     955    5.9479870e+01   0.000000e+00   0.000000e+00      0s

Use crossover to convert LP symmetric solution to basic solution...
Crossover log...

       0 DPushes remaining with DInf 0.0000000e+00                 0s

     676 PPushes remaining with PInf 0.0000000e+00                 0s
       0 PPushes remaining with PInf 0.0000000e+00                 0s

  Push phase complete: Pinf 0.0000000e+00, Dinf 8.6799395e-14      0s

Iteration    Objective       Primal Inf.    Dual Inf.      Time
    1698    5.9479870e+01   0.000000e+00   0.000000e+00      1s

Solved in 1698 iterations and 0.57 seconds (0.44 work units)
Optimal objective  5.947987002e+01

Gurobi 9.5.0 (linux64) logging started Fri Dec  8 11:49:01 2023

Set parameter LogFile to value "/lustre1/scratch/348/vsc34888/JointResearch/05.Models/06.Benchmarking/F.Representative_days_based_on_Line_Benefit_NN_OC_fy_1/RTS24_mod1_ByStages_nc300/openStarNet_RTS24_mod1_ByStages_nc300.log"
Set parameter Method to value 2
Set parameter MIPFocus to value 1
Set parameter Presolve to value 2
Set parameter RINS to value 100
Set parameter MIPGap to value 0.01
Set parameter Threads to value 36
Set parameter TimeLimit to value 259200
Set parameter IterationLimit to value 760000000
Gurobi Optimizer version 9.5.0 build v9.5.0rc5 (linux64)
Thread count: 36 physical cores, 36 logical processors, using up to 36 threads
Optimize a model with 106858 rows, 72098 columns and 291232 nonzeros
Model fingerprint: 0x14c7bd81
Variable types: 72077 continuous, 21 integer (21 binary)
Coefficient statistics:
  Matrix range     [6e-04, 9e+02]
  Objective range  [1e+00, 1e+00]
  Bounds range     [3e-05, 3e+00]
  RHS range        [3e-05, 3e+00]
Presolve removed 63643 rows and 36555 columns
Presolve time: 0.40s
Presolved: 43215 rows, 35543 columns, 156075 nonzeros
Variable types: 35522 continuous, 21 integer (21 binary)
Root relaxation presolved: 43215 rows, 35543 columns, 156075 nonzeros

Root barrier log...

Ordering time: 0.01s

Barrier statistics:
 Dense cols : 21
 AA' NZ     : 2.899e+05
 Factor NZ  : 8.447e+05 (roughly 40 MB of memory)
 Factor Ops : 1.936e+07 (less than 1 second per iteration)
 Threads    : 35

                  Objective                Residual
Iter       Primal          Dual         Primal    Dual     Compl     Time
   0   6.73954494e+05 -2.94651539e+08  5.38e+00 1.59e+02  8.31e+03     1s
   1   1.08470709e+05 -7.69455989e+07  7.25e-01 2.94e-08  1.17e+03     1s
   2   4.33872178e+04 -3.42729427e+07  1.89e-01 1.10e-08  4.04e+02     1s
   3   2.23115138e+04 -3.89697568e+06  9.60e-03 1.76e-08  3.97e+01     1s
   4   1.64536580e+04 -3.50638588e+05  6.97e-04 1.60e-09  3.65e+00     1s
   5   7.11731083e+03 -8.81763545e+04  7.38e-05 3.74e-10  9.47e-01     1s
   6   2.02151993e+03 -2.05771663e+04  1.25e-05 7.44e-11  2.24e-01     1s
   7   7.37303678e+02 -5.29743041e+03  2.55e-06 1.83e-11  5.99e-02     1s
   8   3.49971140e+02 -1.28938577e+03  5.35e-07 4.28e-12  1.63e-02     1s
   9   2.28889979e+02 -4.77326122e+02  2.60e-07 1.57e-12  7.01e-03     1s
  10   1.26742659e+02 -1.25399437e+02  8.81e-08 9.09e-13  2.50e-03     1s
  11   9.13613026e+01 -1.05151165e+01  4.40e-08 4.55e-13  1.01e-03     1s
  12   7.76312623e+01  2.06793287e+01  3.00e-08 4.55e-13  5.66e-04     1s
  13   6.77856078e+01  2.80139365e+01  1.91e-08 4.55e-13  3.95e-04     1s
  14   6.18728431e+01  3.45456565e+01  1.24e-08 4.55e-13  2.71e-04     1s
  15   5.91783972e+01  4.09059370e+01  9.32e-09 4.55e-13  1.81e-04     1s
  16   5.63976670e+01  4.34955183e+01  6.16e-09 4.55e-13  1.28e-04     1s
  17   5.50910365e+01  4.46815722e+01  4.63e-09 4.55e-13  1.03e-04     1s
  18   5.37429143e+01  4.81513811e+01  3.21e-09 9.09e-13  5.55e-05     1s
  19   5.29033908e+01  4.93839744e+01  2.35e-09 4.55e-13  3.50e-05     1s
  20   5.24431983e+01  4.96245401e+01  1.75e-09 9.09e-13  2.80e-05     1s
  21   5.21322700e+01  4.99330532e+01  1.36e-09 4.55e-13  2.18e-05     1s
  22   5.16773729e+01  5.01352116e+01  7.59e-10 9.09e-13  1.53e-05     1s
  23   5.14134926e+01  5.04255107e+01  4.29e-10 4.55e-13  9.81e-06     1s
  24   5.12827843e+01  5.05840293e+01  2.66e-10 4.55e-13  6.94e-06     1s
  25   5.12147299e+01  5.06151002e+01  1.86e-10 4.55e-13  5.96e-06     1s
  26   5.11641465e+01  5.07857306e+01  1.23e-10 9.09e-13  3.76e-06     1s
  27   5.11129201e+01  5.09898067e+01  5.96e-11 4.55e-13  1.22e-06     1s
  28   5.10802849e+01  5.10403117e+01  4.37e-11 4.55e-13  3.97e-07     1s
  29   5.10700127e+01  5.10540829e+01  2.06e-10 9.09e-13  1.58e-07     1s
  30   5.10669038e+01  5.10595867e+01  2.65e-10 9.09e-13  7.27e-08     1s
  31   5.10637620e+01  5.10600524e+01  6.32e-10 4.55e-13  3.68e-08     1s
  32   5.10625441e+01  5.10613439e+01  2.17e-10 2.27e-13  1.19e-08     1s
  33   5.10622416e+01  5.10618675e+01  1.17e-10 9.09e-13  3.71e-09     1s
  34   5.10622115e+01  5.10620733e+01  1.56e-10 4.55e-13  1.37e-09     1s
  35   5.10622104e+01  5.10621684e+01  1.57e-10 9.09e-13  4.17e-10     1s
  36   5.10622091e+01  5.10622089e+01  1.80e-10 4.55e-13  2.13e-12     1s

Barrier solved model in 36 iterations and 1.36 seconds (1.25 work units)
Optimal objective 5.10622091e+01


Root relaxation: objective 5.106221e+01, 6104 iterations, 1.18 seconds (1.02 work units)

    Nodes    |    Current Node    |     Objective Bounds      |     Work
 Expl Unexpl |  Obj  Depth IntInf | Incumbent    BestBd   Gap | It/Node Time

     0     0   51.06221    0   15          -   51.06221      -     -    3s
H    0     0                      94.7869632   51.06221  46.1%     -    3s
H    0     0                      85.3605397   51.33366  39.9%     -    5s
     0     0   51.33366    0   12   85.36054   51.33366  39.9%     -    5s
     0     0   51.34476    0   11   85.36054   51.34476  39.8%     -    6s
H    0     0                      82.7643227   51.64716  37.6%     -    8s
H    0     0                      82.7106779   51.64716  37.6%     -    8s
     0     0   51.64716    0   14   82.71068   51.64716  37.6%     -    9s
     0     0   51.66348    0   14   82.71068   51.66348  37.5%     -   10s
     0     0   51.84198    0   15   82.71068   51.84198  37.3%     -   12s
H    0     0                      80.9007691   51.85681  35.9%     -   13s
     0     0   51.85681    0   13   80.90077   51.85681  35.9%     -   13s
H    0     0                      76.3664324   51.92693  32.0%     -   15s
     0     0   51.92693    0   12   76.36643   51.92693  32.0%     -   15s
     0     0   51.93305    0   13   76.36643   51.93305  32.0%     -   15s
     0     0   51.99472    0   13   76.36643   51.99472  31.9%     -   18s
H    0     0                      75.3751595   51.99472  31.0%     -   22s
H    0     0                      67.6871500   51.99472  23.2%     -  110s
     0     2   51.99472    0   13   67.68715   51.99472  23.2%     -  111s
     7    16   52.73032    3   17   67.68715   52.64306  22.2%  2772  115s
    61    86   54.54283    6   14   67.68715   53.74927  20.6%  2140  121s
    97   110   55.78666    7   13   67.68715   54.39267  19.6%  2363  150s
H  101   110                      67.6545377   54.39267  19.6%  2328  150s
   169   148   59.48610    8   13   67.65454   54.39267  19.6%  2096  155s
   247   188   66.14267    9   12   67.65454   54.39267  19.6%  2057  169s
   289   196   62.81275   10   11   67.65454   54.39267  19.6%  2027  171s
   399   205     cutoff   11        67.65454   54.39267  19.6%  1860  361s
   546   210     cutoff   12        67.65454   54.54353  19.4%  1725  367s
   643   244   63.09512    7   12   67.65454   54.54353  19.4%  1687  370s
   863   275   66.83909    8   11   67.65454   54.54353  19.4%  1570  375s
  1108   291   65.48397   11   10   67.65454   54.54353  19.4%  1448  395s
  1167   302     cutoff   12        67.65454   57.67616  14.7%  1461  413s
  1236   307     cutoff    8        67.65454   57.67616  14.7%  1470  416s
  1570   304     cutoff   10        67.65454   58.34625  13.8%  1353  422s
  1981   196   64.58031   10    9   67.65454   59.60669  11.9%  1238  427s
  2483   102   67.21828   11    9   67.65454   60.96302  9.89%  1110  432s
  2845    10   64.87509   11    9   67.65454   63.51197  6.12%  1031  435s

Cutting planes:
  Implied bound: 205
  MIR: 1066
  Relax-and-lift: 152

Explored 2924 nodes (2990783 simplex iterations) in 437.13 seconds (717.77 work units)
Thread count was 36 (of 36 available processors)

Solution count 9: 67.6545 67.6872 75.3752 ... 94.787

Optimal solution found (tolerance 1.00e-02)
Best objective 6.765453771064e+01, best bound 6.765453771064e+01, gap 0.0000%

Gurobi 9.5.0 (linux64) logging started Fri Dec  8 11:56:56 2023

Set parameter LogFile to value "/lustre1/scratch/348/vsc34888/JointResearch/05.Models/06.Benchmarking/F.Representative_days_based_on_Line_Benefit_NN_OC_fy_1/RTS24_mod1_ByStages_nc300/openStarNet_RTS24_mod1_ByStages_nc300.log"
Set parameter Method to value 2
Set parameter MIPFocus to value 1
Set parameter Presolve to value 2
Set parameter RINS to value 100
Set parameter MIPGap to value 0.01
Set parameter Threads to value 36
Set parameter TimeLimit to value 259200
Set parameter IterationLimit to value 760000000
No parameters matching 'relax_integrality' found
Gurobi Optimizer version 9.5.0 build v9.5.0rc5 (linux64)
Thread count: 36 physical cores, 36 logical processors, using up to 36 threads
Optimize a model with 106858 rows, 72077 columns and 265927 nonzeros
Model fingerprint: 0x75e02a48
Coefficient statistics:
  Matrix range     [6e-04, 9e+02]
  Objective range  [1e+00, 1e+00]
  Bounds range     [3e-05, 3e+00]
  RHS range        [3e-05, 2e+01]
Presolve removed 88975 rows and 40320 columns
Presolve time: 0.13s
Presolved: 17883 rows, 32214 columns, 76357 nonzeros

Ordering time: 0.00s

Barrier statistics:
 AA' NZ     : 3.878e+04
 Factor NZ  : 1.475e+05 (roughly 16 MB of memory)
 Factor Ops : 1.883e+06 (less than 1 second per iteration)
 Threads    : 36

                  Objective                Residual
Iter       Primal          Dual         Primal    Dual     Compl     Time
   0   7.69247588e+06 -1.70250985e+08  1.39e+02 1.05e+02  8.52e+04     0s
   1   4.43088477e+05 -1.37043853e+08  7.07e+00 4.84e-12  6.47e+03     0s
   2   6.98267431e+04 -3.67530795e+07  8.70e-01 1.61e-10  1.00e+03     0s
   3   3.10145712e+04 -7.26037301e+06  1.21e-01 6.14e-12  1.58e+02     0s
   4   2.29218492e+04 -1.27787301e+06  1.16e-02 2.70e-12  2.49e+01     0s
   5   1.67781852e+04 -2.58022954e+05  6.20e-04 2.06e-12  5.13e+00     0s
   6   7.71476244e+03 -6.19028936e+04  3.43e-05 1.33e-12  1.30e+00     0s
   7   2.12161427e+03 -1.35249811e+04  4.64e-06 9.09e-13  2.92e-01     0s
   8   7.37033176e+02 -3.38928756e+03  8.60e-07 9.09e-13  7.69e-02     0s
   9   3.25611627e+02 -6.37596917e+02  1.21e-07 2.27e-13  1.80e-02     0s
  10   2.15492488e+02 -3.30167405e+02  5.82e-08 2.27e-13  1.02e-02     0s
  11   1.15075312e+02 -9.88804124e+01  1.19e-08 2.27e-13  3.99e-03     0s
  12   8.03405300e+01  2.85057938e+01  2.11e-09 2.27e-13  9.66e-04     0s
  13   7.22050188e+01  5.82927023e+01  6.83e-10 2.27e-13  2.59e-04     0s
  14   6.97364014e+01  6.42758254e+01  2.95e-10 9.09e-13  1.02e-04     0s
  15   6.84516968e+01  6.62877721e+01  1.07e-10 2.27e-13  4.03e-05     0s
  16   6.79380664e+01  6.70279191e+01  3.63e-11 9.09e-13  1.70e-05     0s
  17   6.77515152e+01  6.73749304e+01  1.54e-10 2.27e-13  7.02e-06     0s
  18   6.76712779e+01  6.76345266e+01  6.06e-11 2.27e-13  6.85e-07     0s
  19   6.76574180e+01  6.76505298e+01  2.36e-10 9.09e-13  1.28e-07     0s
  20   6.76545889e+01  6.76543979e+01  2.55e-10 2.27e-13  3.56e-09     0s
  21   6.76545380e+01  6.76545372e+01  5.37e-10 4.55e-13  1.49e-11     0s
  22   6.76545377e+01  6.76545377e+01  2.90e-11 2.27e-13  1.49e-14     0s

Barrier solved model in 22 iterations and 0.37 seconds (0.34 work units)
Optimal objective 6.76545377e+01

Crossover log...

    3884 DPushes remaining with DInf 0.0000000e+00                 0s
       0 DPushes remaining with DInf 0.0000000e+00                 0s

     984 PPushes remaining with PInf 0.0000000e+00                 0s
       0 PPushes remaining with PInf 0.0000000e+00                 0s

  Push phase complete: Pinf 0.0000000e+00, Dinf 1.4659883e-13      0s

Iteration    Objective       Primal Inf.    Dual Inf.      Time
    1055    6.7654538e+01   0.000000e+00   0.000000e+00      0s

Use crossover to convert LP symmetric solution to basic solution...
Crossover log...

       0 DPushes remaining with DInf 0.0000000e+00                 0s

     740 PPushes remaining with PInf 0.0000000e+00                 0s
       0 PPushes remaining with PInf 0.0000000e+00                 0s

  Push phase complete: Pinf 0.0000000e+00, Dinf 1.7025629e-13      0s

Iteration    Objective       Primal Inf.    Dual Inf.      Time
    1912    6.7654538e+01   0.000000e+00   0.000000e+00      1s

Solved in 1912 iterations and 0.56 seconds (0.46 work units)
Optimal objective  6.765453771e+01
